Minimize
	value: tt

Subject to
tt + 2000 s_1_1 > 0
tt - t_1_1 - 2000.000000 s_1_1 > -1988.227400
tt + 2000 s_2_1 > 0
tt - t_2_1 - 2000.000000 s_2_1 > -1996.412417
tt + 2000 s_1_2 > 0
tt - t_1_2 - 2000.000000 s_1_2 > -1991.751600
tt + 2000 s_2_2 > 0
tt - t_2_2 - 2000.000000 s_2_2 > -1997.942500
tt + 2000 s_1_3 > 0
tt - t_1_3 - 2000.000000 s_1_3 > -1981.511400
tt + 2000 s_2_3 > 0
tt - t_2_3 - 2000.000000 s_2_3 > -1993.410286
tt + 2000 s_1_4 > 0
tt - t_1_4 - 2000.000000 s_1_4 > -1988.896200
tt + 2000 s_2_4 > 0
tt - t_2_4 - 2000.000000 s_2_4 > -1996.184875
tt + 2000 s_1_5 > 0
tt - t_1_5 - 2033.513600 s_1_5 + 33.513600 s_1_1 > -1999.458200
tt + 2000 s_2_5 > 0
tt - t_2_5 - 2053.817264 s_2_5 + 53.817264 s_2_1 > -1998.421833
s_1_1 + s_2_1  = 1
s_1_2 + s_2_2  = 1
s_1_3 + s_2_3  = 1
s_1_4 + s_2_4  = 1
s_1_5 + s_2_5  = 1
t_1_1 - t_1_2 + 2000.000000 u_1_1_2 > 8.248400
t_1_2 - t_1_1 - 2000.000000 u_1_1_2 > -1988.227400
t_2_1 - t_2_2 + 2000.000000 u_2_1_2 > 2.057500
t_2_2 - t_2_1 - 2000.000000 u_2_1_2 > -1996.412417
t_1_1 - t_1_3 + 2000.000000 u_1_1_3 > 18.488600
t_1_3 - t_1_1 - 2000.000000 u_1_1_3 > -1988.227400
t_2_1 - t_2_3 + 2000.000000 u_2_1_3 > 6.589714
t_2_3 - t_2_1 - 2000.000000 u_2_1_3 > -1996.412417
t_1_1 - t_1_4 + 2000.000000 u_1_1_4 > 11.103800
t_1_4 - t_1_1 - 2000.000000 u_1_1_4 > -1988.227400
t_2_1 - t_2_4 + 2000.000000 u_2_1_4 > 3.815125
t_2_4 - t_2_1 - 2000.000000 u_2_1_4 > -1996.412417
t_1_5 - t_1_1 - 2000.000000 s_1_1 > -1983.648080
t_1_5 - t_2_1 - 2000.000000 s_2_1 > -1984.806929
t_2_5 - t_1_1 - 2000.000000 s_1_1 > -1983.648080
t_2_5 - t_2_1 - 2000.000000 s_2_1 > -1984.806929
t_1_2 - t_1_1 + 2000.000000 u_1_2_1 > 11.772600
t_1_1 - t_1_2 - 2000.000000 u_1_2_1 > -1991.751600
t_2_2 - t_2_1 + 2000.000000 u_2_2_1 > 3.587583
t_2_1 - t_2_2 - 2000.000000 u_2_2_1 > -1997.942500
t_1_2 - t_1_3 + 2000.000000 u_1_2_3 > 18.488600
t_1_3 - t_1_2 - 2000.000000 u_1_2_3 > -1991.751600
t_2_2 - t_2_3 + 2000.000000 u_2_2_3 > 6.589714
t_2_3 - t_2_2 - 2000.000000 u_2_2_3 > -1997.942500
t_1_2 - t_1_4 + 2000.000000 u_1_2_4 > 11.103800
t_1_4 - t_1_2 - 2000.000000 u_1_2_4 > -1991.751600
t_2_2 - t_2_4 + 2000.000000 u_2_2_4 > 3.815125
t_2_4 - t_2_2 - 2000.000000 u_2_2_4 > -1997.942500
t_1_5 - t_1_2 - 2000.000000 s_1_2 > -1987.172280
t_1_5 - t_2_2 - 2000.000000 s_2_2 > -1986.337012
t_2_5 - t_1_2 - 2000.000000 s_1_2 > -1987.172280
t_2_5 - t_2_2 - 2000.000000 s_2_2 > -1986.337012
t_1_3 - t_1_1 + 2000.000000 u_1_3_1 > 11.772600
t_1_1 - t_1_3 - 2000.000000 u_1_3_1 > -1981.511400
t_2_3 - t_2_1 + 2000.000000 u_2_3_1 > 3.587583
t_2_1 - t_2_3 - 2000.000000 u_2_3_1 > -1993.410286
t_1_3 - t_1_2 + 2000.000000 u_1_3_2 > 8.248400
t_1_2 - t_1_3 - 2000.000000 u_1_3_2 > -1981.511400
t_2_3 - t_2_2 + 2000.000000 u_2_3_2 > 2.057500
t_2_2 - t_2_3 - 2000.000000 u_2_3_2 > -1993.410286
t_1_3 - t_1_4 + 2000.000000 u_1_3_4 > 11.103800
t_1_4 - t_1_3 - 2000.000000 u_1_3_4 > -1981.511400
t_2_3 - t_2_4 + 2000.000000 u_2_3_4 > 3.815125
t_2_4 - t_2_3 - 2000.000000 u_2_3_4 > -1993.410286
t_1_5 - t_1_3 - 2000.000000 s_1_3 > -1976.932080
t_1_5 - t_2_3 - 2000.000000 s_2_3 > -1981.804798
t_2_5 - t_1_3 - 2000.000000 s_1_3 > -1976.932080
t_2_5 - t_2_3 - 2000.000000 s_2_3 > -1981.804798
t_1_4 - t_1_1 + 2000.000000 u_1_4_1 > 11.772600
t_1_1 - t_1_4 - 2000.000000 u_1_4_1 > -1988.896200
t_2_4 - t_2_1 + 2000.000000 u_2_4_1 > 3.587583
t_2_1 - t_2_4 - 2000.000000 u_2_4_1 > -1996.184875
t_1_4 - t_1_2 + 2000.000000 u_1_4_2 > 8.248400
t_1_2 - t_1_4 - 2000.000000 u_1_4_2 > -1988.896200
t_2_4 - t_2_2 + 2000.000000 u_2_4_2 > 2.057500
t_2_2 - t_2_4 - 2000.000000 u_2_4_2 > -1996.184875
t_1_4 - t_1_3 + 2000.000000 u_1_4_3 > 18.488600
t_1_3 - t_1_4 - 2000.000000 u_1_4_3 > -1988.896200
t_2_4 - t_2_3 + 2000.000000 u_2_4_3 > 6.589714
t_2_3 - t_2_4 - 2000.000000 u_2_4_3 > -1996.184875
t_1_5 - t_1_4 - 2000.000000 s_1_4 > -1984.316880
t_1_5 - t_2_4 - 2000.000000 s_2_4 > -1984.579387
t_2_5 - t_1_4 - 2000.000000 s_1_4 > -1984.316880
t_2_5 - t_2_4 - 2000.000000 s_2_4 > -1984.579387
t_1_5 - t_1_1 - 2000.000000 s_1_1 > -1983.648080
t_1_5 - t_2_1 - 2000.000000 s_2_1 > -1984.806929
t_2_5 - t_1_1 - 2000.000000 s_1_1 > -1983.648080
t_2_5 - t_2_1 - 2000.000000 s_2_1 > -1984.806929
t_1_5 - t_1_2 - 2000.000000 s_1_2 > -1987.172280
t_1_5 - t_2_2 - 2000.000000 s_2_2 > -1986.337012
t_2_5 - t_1_2 - 2000.000000 s_1_2 > -1987.172280
t_2_5 - t_2_2 - 2000.000000 s_2_2 > -1986.337012
t_1_5 - t_1_3 - 2000.000000 s_1_3 > -1976.932080
t_1_5 - t_2_3 - 2000.000000 s_2_3 > -1981.804798
t_2_5 - t_1_3 - 2000.000000 s_1_3 > -1976.932080
t_2_5 - t_2_3 - 2000.000000 s_2_3 > -1981.804798
t_1_5 - t_1_4 - 2000.000000 s_1_4 > -1984.316880
t_1_5 - t_2_4 - 2000.000000 s_2_4 > -1984.579387
t_2_5 - t_1_4 - 2000.000000 s_1_4 > -1984.316880
t_2_5 - t_2_4 - 2000.000000 s_2_4 > -1984.579387
Binary
s_1_1
s_2_1
s_1_2
s_2_2
s_1_3
s_2_3
s_1_4
s_2_4
s_1_5
s_2_5
u_1_1_2
u_2_1_2
u_1_1_3
u_2_1_3
u_1_1_4
u_2_1_4
u_1_2_1
u_2_2_1
u_1_2_3
u_2_2_3
u_1_2_4
u_2_2_4
u_1_3_1
u_2_3_1
u_1_3_2
u_2_3_2
u_1_3_4
u_2_3_4
u_1_4_1
u_2_4_1
u_1_4_2
u_2_4_2
u_1_4_3
u_2_4_3

End
